%%% static parameters %%%
timespan = 1;
Fact = [2];
Distr1 = [5];
Distr2 = [10];
Clients_N = [100];
Demand_W = [15];
Lt0 = [4];
Lt1 = [4];
SS_ = [0.85];
DS_D = [8];
K = [200];
MA = [500];
%%% dynamic parameters %%%
lost_ratio_sales_ret_th = 0.6284507387760374;
lost_ratio_sales_ret_w = 2;
lost_ratio_sales_dis_th = 0.3358172848436719;
lost_ratio_sales_dis_w = 50;
lost_ratio_sales_fac_th = 0.8078997465916985;
lost_ratio_sales_fac_w = 12;
stock_customer_MA_mean_relative_th = 0.10192854917981875;
stock_customer_MA_mean_relative_w = 68;
stock_distributor_MA_mean_relative_th = 0.17114237384803976;
stock_distributor_MA_mean_relative_w = 1;
stock_retailer_MA_mean_relative_th = 0.06715543556037173;
stock_retailer_MA_mean_relative_w = 74;
stock_factory_MA_mean_relative_th = 0.6582488002778187;
stock_factory_MA_mean_relative_w = 70;
